c 1 A1
c 2 C3
c 3 C4
c 4 C5
c 5 C6
c 6 A2
c 7 C7
c 8 C8
c 9 C9
c 10 C10
c 11 C11
c 12 C12
c 13 C14
c 14 A13
c 15 C15
c 16 C16
p cnf 16 24
1 0
1 -6 0
1 -2 0
1 -3 0
1 -4 0
1 -5 0
6 -1 0
3 -1 0
5 -1 0
6 -7 0
6 -8 0
6 -9 0
6 -10 0
6 -11 0
6 -12 0
6 -14 0
6 -13 0
14 -15 0
14 -16 0
15 -14 0
16 -14 0
-6 -15 0
6 15 0
-4 0

